n_res = 4;
rc = [ 28, 25, 34, 42 ];
n_tasks = 30;
d = [ 8, 6, 3, 7, 1, 4, 6, 3, 4, 4, 9, 10, 7, 9, 7, 1, 10, 3, 7, 2, 9, 2, 10, 7, 7, 9, 2, 8, 10, 3 ];
rr = [| 0, 10, 0, 2, 0, 0, 3, 10, 1, 0, 0, 0, 1, 2, 3, 0, 3, 7, 0, 0, 7, 5, 6, 8, 7, 8, 3, 0, 7, 0
      | 9, 2, 0, 0, 5, 7, 7, 1, 4, 0, 0, 0, 8, 0, 0, 10, 5, 2, 7, 2, 3, 1, 3, 1, 7, 0, 1, 8, 0, 1
      | 7, 8, 10, 9, 10, 4, 0, 7, 0, 8, 9, 3, 0, 9, 6, 4, 7, 2, 10, 4, 0, 6, 10, 2, 6, 2, 0, 6, 8, 3
      | 7, 5, 6, 8, 9, 6, 0, 3, 9, 0, 6, 1, 0, 3, 9, 6, 8, 6, 4, 6, 7, 6, 2, 7, 8, 8, 5, 4, 9, 6 |];
suc = [ { 2 }, 
        { 1 }, 
        { 4 }, 
        { 3 }, 
        { 6 }, 
        { 5 }, 
        { 8 }, 
        { 7 }, 
        { 10 }, 
        { 9 }, 
        { 12 }, 
        { 11 }, 
        { 14 }, 
        { 13 }, 
        { 16 }, 
        { 15 }, 
        { 18 }, 
        { 17 }, 
        { 20 }, 
        { 19 }, 
        { 22 }, 
        { 21 }, 
        { 24 }, 
        { 23 }, 
        { 26 }, 
        { 25 }, 
        { 28 }, 
        { 27 }, 
        { 30 }, 
        { 29 }]; 
